NAME
ROWS
 N  OBJ
 G  c1
 G  c2
 G  c3
 G  c4
 G  c5
 G  c6
 G  c7
 G  c8
 G  c9
 G  c10
 G  c11
 G  c12
 G  c13
 G  c14
 G  c15
 G  c16
 G  c17
 G  c18
 G  c19
 G  c20
 G  c21
 G  c22
 G  c23
 G  c24
 G  c25
 G  c26
 G  c27
 G  c28
 G  c29
 G  c30
 G  c31
 G  c32
 G  c33
 G  c34
 G  c35
 G  c36
 G  c37
 G  c38
 G  c39
 G  c40
 G  c41
 G  c42
 G  c43
 G  c44
 G  c45
 G  c46
 G  c47
 G  c48
 G  c49
 G  c50
 G  c51
 G  c52
 G  c53
 G  c54
 G  c55
 G  c56
 G  c57
 G  c58
 G  c59
 G  c60
 G  c61
 G  c62
 G  c63
 G  c64
 G  c65
 G  c66
 G  c67
 G  c68
 G  c69
 G  c70
 G  c71
 G  c72
 G  c73
 G  c74
 G  c75
 G  c76
 G  c77
 G  c78
 G  c79
 G  c80
 G  c81
 G  c82
 G  c83
 G  c84
 G  c85
 G  c86
 G  c87
 G  c88
 G  c89
 G  c90
 G  c91
 G  c92
 G  c93
 G  c94
 G  c95
 G  c96
 G  c97
 G  c98
 G  c99
 G  c100
COLUMNS
    MARKER    'MARKER'                 'INTORG'
    x[1]      c1        1
    x[1]      c4        1
    x[1]      c10       1
    x[1]      c20       1
    x[1]      c26       1
    x[1]      c44       1
    x[1]      c59       1
    x[1]      c61       1
    x[1]      c79       1
    x[1]      c85       1
    x[1]      c90       1
    x[1]      c91       1
    x[1]      c98       1
    x[1]      OBJ       1
    x[2]      c2        1
    x[2]      c8        1
    x[2]      c12       1
    x[2]      c39       1
    x[2]      c55       1
    x[2]      c61       1
    x[2]      c62       1
    x[2]      c63       1
    x[2]      c65       1
    x[2]      c68       1
    x[2]      c73       1
    x[2]      c87       1
    x[2]      OBJ       1
    x[3]      c3        1
    x[3]      c21       1
    x[3]      c22       1
    x[3]      c45       1
    x[3]      c62       1
    x[3]      c64       1
    x[3]      c69       1
    x[3]      c71       1
    x[3]      c76       1
    x[3]      c81       1
    x[3]      c90       1
    x[3]      OBJ       1
    x[4]      c1        1
    x[4]      c4        1
    x[4]      c22       1
    x[4]      c24       1
    x[4]      c34       1
    x[4]      c46       1
    x[4]      c48       1
    x[4]      c54       1
    x[4]      c62       1
    x[4]      c84       1
    x[4]      c92       1
    x[4]      c100      1
    x[4]      OBJ       1
    x[5]      c5        1
    x[5]      c14       1
    x[5]      c17       1
    x[5]      c35       1
    x[5]      c51       1
    x[5]      c53       1
    x[5]      c56       1
    x[5]      c64       1
    x[5]      c66       1
    x[5]      c84       1
    x[5]      c88       1
    x[5]      OBJ       1
    x[6]      c6        1
    x[6]      c10       1
    x[6]      c22       1
    x[6]      c23       1
    x[6]      c26       1
    x[6]      c36       1
    x[6]      c41       1
    x[6]      c43       1
    x[6]      c57       1
    x[6]      c100      1
    x[6]      OBJ       1
    x[7]      c7        1
    x[7]      c18       1
    x[7]      c24       1
    x[7]      c30       1
    x[7]      c37       1
    x[7]      c52       1
    x[7]      OBJ       1
    x[8]      c2        1
    x[8]      c8        1
    x[8]      c11       1
    x[8]      c17       1
    x[8]      c25       1
    x[8]      c48       1
    x[8]      c49       1
    x[8]      c50       1
    x[8]      c52       1
    x[8]      c69       1
    x[8]      c70       1
    x[8]      c85       1
    x[8]      c90       1
    x[8]      OBJ       1
    x[9]      c9        1
    x[9]      c11       1
    x[9]      c18       1
    x[9]      c20       1
    x[9]      c29       1
    x[9]      c41       1
    x[9]      c73       1
    x[9]      c81       1
    x[9]      c83       1
    x[9]      OBJ       1
    x[10]     c1        1
    x[10]     c6        1
    x[10]     c10       1
    x[10]     c26       1
    x[10]     c31       1
    x[10]     c34       1
    x[10]     c37       1
    x[10]     c39       1
    x[10]     c50       1
    x[10]     c51       1
    x[10]     c74       1
    x[10]     c75       1
    x[10]     c82       1
    x[10]     c86       1
    x[10]     OBJ       1
    x[11]     c8        1
    x[11]     c9        1
    x[11]     c11       1
    x[11]     c13       1
    x[11]     c33       1
    x[11]     c38       1
    x[11]     c42       1
    x[11]     c60       1
    x[11]     c61       1
    x[11]     c82       1
    x[11]     OBJ       1
    x[12]     c2        1
    x[12]     c12       1
    x[12]     c19       1
    x[12]     c29       1
    x[12]     c53       1
    x[12]     c55       1
    x[12]     c79       1
    x[12]     c84       1
    x[12]     c88       1
    x[12]     c94       1
    x[12]     OBJ       1
    x[13]     c11       1
    x[13]     c13       1
    x[13]     c21       1
    x[13]     c67       1
    x[13]     c70       1
    x[13]     c74       1
    x[13]     c76       1
    x[13]     c80       1
    x[13]     c84       1
    x[13]     c92       1
    x[13]     c98       1
    x[13]     OBJ       1
    x[14]     c5        1
    x[14]     c14       1
    x[14]     c37       1
    x[14]     c48       1
    x[14]     c50       1
    x[14]     c55       1
    x[14]     c69       1
    x[14]     c77       1
    x[14]     c89       1
    x[14]     c97       1
    x[14]     OBJ       1
    x[15]     c15       1
    x[15]     c51       1
    x[15]     c59       1
    x[15]     c80       1
    x[15]     c84       1
    x[15]     c86       1
    x[15]     c88       1
    x[15]     OBJ       1
    x[16]     c16       1
    x[16]     c30       1
    x[16]     c38       1
    x[16]     c45       1
    x[16]     c55       1
    x[16]     c59       1
    x[16]     c65       1
    x[16]     c67       1
    x[16]     c69       1
    x[16]     c70       1
    x[16]     c72       1
    x[16]     c82       1
    x[16]     c85       1
    x[16]     c98       1
    x[16]     OBJ       1
    x[17]     c5        1
    x[17]     c8        1
    x[17]     c17       1
    x[17]     c22       1
    x[17]     c29       1
    x[17]     c35       1
    x[17]     c39       1
    x[17]     c40       1
    x[17]     c41       1
    x[17]     c61       1
    x[17]     OBJ       1
    x[18]     c7        1
    x[18]     c9        1
    x[18]     c18       1
    x[18]     c35       1
    x[18]     c45       1
    x[18]     c62       1
    x[18]     c63       1
    x[18]     c69       1
    x[18]     c70       1
    x[18]     c94       1
    x[18]     c96       1
    x[18]     OBJ       1
    x[19]     c12       1
    x[19]     c19       1
    x[19]     c35       1
    x[19]     c40       1
    x[19]     c47       1
    x[19]     c79       1
    x[19]     c84       1
    x[19]     OBJ       1
    x[20]     c1        1
    x[20]     c9        1
    x[20]     c20       1
    x[20]     c21       1
    x[20]     c48       1
    x[20]     c64       1
    x[20]     c81       1
    x[20]     c84       1
    x[20]     c99       1
    x[20]     OBJ       1
    x[21]     c3        1
    x[21]     c13       1
    x[21]     c20       1
    x[21]     c21       1
    x[21]     c28       1
    x[21]     c64       1
    x[21]     c75       1
    x[21]     c80       1
    x[21]     c96       1
    x[21]     c99       1
    x[21]     OBJ       1
    x[22]     c3        1
    x[22]     c4        1
    x[22]     c6        1
    x[22]     c17       1
    x[22]     c22       1
    x[22]     c46       1
    x[22]     c49       1
    x[22]     c59       1
    x[22]     c80       1
    x[22]     c86       1
    x[22]     c92       1
    x[22]     c95       1
    x[22]     c98       1
    x[22]     OBJ       1
    x[23]     c6        1
    x[23]     c23       1
    x[23]     c33       1
    x[23]     c39       1
    x[23]     c40       1
    x[23]     c48       1
    x[23]     c49       1
    x[23]     c54       1
    x[23]     c69       1
    x[23]     c71       1
    x[23]     c74       1
    x[23]     c78       1
    x[23]     c83       1
    x[23]     c87       1
    x[23]     c94       1
    x[23]     OBJ       1
    x[24]     c4        1
    x[24]     c7        1
    x[24]     c24       1
    x[24]     c28       1
    x[24]     c42       1
    x[24]     c44       1
    x[24]     c51       1
    x[24]     c55       1
    x[24]     c57       1
    x[24]     c60       1
    x[24]     c88       1
    x[24]     c90       1
    x[24]     OBJ       1
    x[25]     c8        1
    x[25]     c25       1
    x[25]     c37       1
    x[25]     c50       1
    x[25]     c59       1
    x[25]     c67       1
    x[25]     c74       1
    x[25]     c78       1
    x[25]     c88       1
    x[25]     c97       1
    x[25]     c100      1
    x[25]     OBJ       1
    x[26]     c1        1
    x[26]     c6        1
    x[26]     c10       1
    x[26]     c26       1
    x[26]     c31       1
    x[26]     c39       1
    x[26]     c44       1
    x[26]     c58       1
    x[26]     c75       1
    x[26]     c90       1
    x[26]     c92       1
    x[26]     c95       1
    x[26]     OBJ       1
    x[27]     c27       1
    x[27]     c32       1
    x[27]     c40       1
    x[27]     c45       1
    x[27]     c50       1
    x[27]     c61       1
    x[27]     c80       1
    x[27]     c86       1
    x[27]     c96       1
    x[27]     OBJ       1
    x[28]     c21       1
    x[28]     c24       1
    x[28]     c28       1
    x[28]     c30       1
    x[28]     c36       1
    x[28]     c45       1
    x[28]     c48       1
    x[28]     c66       1
    x[28]     c75       1
    x[28]     c79       1
    x[28]     c92       1
    x[28]     c100      1
    x[28]     OBJ       1
    x[29]     c9        1
    x[29]     c12       1
    x[29]     c17       1
    x[29]     c29       1
    x[29]     c60       1
    x[29]     c78       1
    x[29]     OBJ       1
    x[30]     c7        1
    x[30]     c16       1
    x[30]     c28       1
    x[30]     c30       1
    x[30]     c35       1
    x[30]     c61       1
    x[30]     c66       1
    x[30]     c76       1
    x[30]     c95       1
    x[30]     c98       1
    x[30]     OBJ       1
    x[31]     c10       1
    x[31]     c26       1
    x[31]     c31       1
    x[31]     c32       1
    x[31]     c35       1
    x[31]     c37       1
    x[31]     c45       1
    x[31]     c46       1
    x[31]     c50       1
    x[31]     c66       1
    x[31]     c83       1
    x[31]     c85       1
    x[31]     OBJ       1
    x[32]     c27       1
    x[32]     c31       1
    x[32]     c32       1
    x[32]     c34       1
    x[32]     c40       1
    x[32]     c60       1
    x[32]     c92       1
    x[32]     OBJ       1
    x[33]     c11       1
    x[33]     c23       1
    x[33]     c33       1
    x[33]     c35       1
    x[33]     c55       1
    x[33]     c65       1
    x[33]     c98       1
    x[33]     OBJ       1
    x[34]     c4        1
    x[34]     c10       1
    x[34]     c32       1
    x[34]     c34       1
    x[34]     c36       1
    x[34]     c37       1
    x[34]     c42       1
    x[34]     c43       1
    x[34]     c83       1
    x[34]     OBJ       1
    x[35]     c5        1
    x[35]     c17       1
    x[35]     c18       1
    x[35]     c19       1
    x[35]     c30       1
    x[35]     c31       1
    x[35]     c33       1
    x[35]     c35       1
    x[35]     c36       1
    x[35]     c38       1
    x[35]     c42       1
    x[35]     c72       1
    x[35]     c76       1
    x[35]     c85       1
    x[35]     c90       1
    x[35]     c96       1
    x[35]     OBJ       1
    x[36]     c6        1
    x[36]     c28       1
    x[36]     c34       1
    x[36]     c35       1
    x[36]     c36       1
    x[36]     c37       1
    x[36]     c40       1
    x[36]     c48       1
    x[36]     c51       1
    x[36]     c58       1
    x[36]     c63       1
    x[36]     c65       1
    x[36]     c67       1
    x[36]     c74       1
    x[36]     c91       1
    x[36]     c95       1
    x[36]     OBJ       1
    x[37]     c7        1
    x[37]     c10       1
    x[37]     c14       1
    x[37]     c25       1
    x[37]     c31       1
    x[37]     c34       1
    x[37]     c36       1
    x[37]     c37       1
    x[37]     c49       1
    x[37]     c68       1
    x[37]     c78       1
    x[37]     c91       1
    x[37]     c99       1
    x[37]     OBJ       1
    x[38]     c11       1
    x[38]     c16       1
    x[38]     c35       1
    x[38]     c38       1
    x[38]     c40       1
    x[38]     c63       1
    x[38]     c74       1
    x[38]     c81       1
    x[38]     OBJ       1
    x[39]     c2        1
    x[39]     c10       1
    x[39]     c17       1
    x[39]     c23       1
    x[39]     c26       1
    x[39]     c39       1
    x[39]     c44       1
    x[39]     c47       1
    x[39]     c53       1
    x[39]     c55       1
    x[39]     c62       1
    x[39]     c74       1
    x[39]     c78       1
    x[39]     c82       1
    x[39]     c83       1
    x[39]     c90       1
    x[39]     c96       1
    x[39]     c100      1
    x[39]     OBJ       1
    x[40]     c17       1
    x[40]     c19       1
    x[40]     c23       1
    x[40]     c27       1
    x[40]     c32       1
    x[40]     c36       1
    x[40]     c38       1
    x[40]     c40       1
    x[40]     c44       1
    x[40]     c45       1
    x[40]     c54       1
    x[40]     c55       1
    x[40]     c78       1
    x[40]     c84       1
    x[40]     OBJ       1
    x[41]     c6        1
    x[41]     c9        1
    x[41]     c17       1
    x[41]     c41       1
    x[41]     c58       1
    x[41]     c71       1
    x[41]     c73       1
    x[41]     c74       1
    x[41]     c85       1
    x[41]     c87       1
    x[41]     c92       1
    x[41]     c95       1
    x[41]     OBJ       1
    x[42]     c11       1
    x[42]     c24       1
    x[42]     c34       1
    x[42]     c35       1
    x[42]     c42       1
    x[42]     c48       1
    x[42]     c72       1
    x[42]     c73       1
    x[42]     c81       1
    x[42]     c88       1
    x[42]     c90       1
    x[42]     c100      1
    x[42]     OBJ       1
    x[43]     c6        1
    x[43]     c34       1
    x[43]     c43       1
    x[43]     c52       1
    x[43]     c59       1
    x[43]     c60       1
    x[43]     OBJ       1
    x[44]     c1        1
    x[44]     c24       1
    x[44]     c26       1
    x[44]     c39       1
    x[44]     c40       1
    x[44]     c44       1
    x[44]     c52       1
    x[44]     c72       1
    x[44]     c80       1
    x[44]     OBJ       1
    x[45]     c3        1
    x[45]     c16       1
    x[45]     c18       1
    x[45]     c27       1
    x[45]     c28       1
    x[45]     c31       1
    x[45]     c40       1
    x[45]     c45       1
    x[45]     c46       1
    x[45]     c54       1
    x[45]     c67       1
    x[45]     c70       1
    x[45]     c82       1
    x[45]     c92       1
    x[45]     c99       1
    x[45]     OBJ       1
    x[46]     c4        1
    x[46]     c22       1
    x[46]     c31       1
    x[46]     c45       1
    x[46]     c46       1
    x[46]     c53       1
    x[46]     c59       1
    x[46]     c61       1
    x[46]     c63       1
    x[46]     OBJ       1
    x[47]     c19       1
    x[47]     c39       1
    x[47]     c47       1
    x[47]     c92       1
    x[47]     OBJ       1
    x[48]     c4        1
    x[48]     c8        1
    x[48]     c14       1
    x[48]     c20       1
    x[48]     c23       1
    x[48]     c28       1
    x[48]     c36       1
    x[48]     c42       1
    x[48]     c48       1
    x[48]     c55       1
    x[48]     c72       1
    x[48]     OBJ       1
    x[49]     c8        1
    x[49]     c22       1
    x[49]     c23       1
    x[49]     c37       1
    x[49]     c49       1
    x[49]     c53       1
    x[49]     c55       1
    x[49]     c71       1
    x[49]     c88       1
    x[49]     c94       1
    x[49]     c97       1
    x[49]     OBJ       1
    x[50]     c8        1
    x[50]     c10       1
    x[50]     c14       1
    x[50]     c25       1
    x[50]     c27       1
    x[50]     c31       1
    x[50]     c50       1
    x[50]     c52       1
    x[50]     c56       1
    x[50]     c67       1
    x[50]     c90       1
    x[50]     c94       1
    x[50]     c98       1
    x[50]     OBJ       1
    x[51]     c5        1
    x[51]     c10       1
    x[51]     c15       1
    x[51]     c24       1
    x[51]     c36       1
    x[51]     c51       1
    x[51]     c56       1
    x[51]     c66       1
    x[51]     c78       1
    x[51]     OBJ       1
    x[52]     c7        1
    x[52]     c8        1
    x[52]     c43       1
    x[52]     c44       1
    x[52]     c50       1
    x[52]     c52       1
    x[52]     c53       1
    x[52]     c57       1
    x[52]     c59       1
    x[52]     c67       1
    x[52]     c79       1
    x[52]     c81       1
    x[52]     c88       1
    x[52]     OBJ       1
    x[53]     c5        1
    x[53]     c12       1
    x[53]     c39       1
    x[53]     c46       1
    x[53]     c49       1
    x[53]     c52       1
    x[53]     c53       1
    x[53]     c63       1
    x[53]     c73       1
    x[53]     c93       1
    x[53]     c96       1
    x[53]     OBJ       1
    x[54]     c4        1
    x[54]     c23       1
    x[54]     c40       1
    x[54]     c45       1
    x[54]     c54       1
    x[54]     c56       1
    x[54]     c60       1
    x[54]     c64       1
    x[54]     c65       1
    x[54]     c68       1
    x[54]     c81       1
    x[54]     c85       1
    x[54]     c90       1
    x[54]     c92       1
    x[54]     c95       1
    x[54]     OBJ       1
    x[55]     c2        1
    x[55]     c12       1
    x[55]     c14       1
    x[55]     c16       1
    x[55]     c24       1
    x[55]     c33       1
    x[55]     c39       1
    x[55]     c40       1
    x[55]     c48       1
    x[55]     c49       1
    x[55]     c55       1
    x[55]     c56       1
    x[55]     c57       1
    x[55]     c62       1
    x[55]     c69       1
    x[55]     c93       1
    x[55]     c95       1
    x[55]     OBJ       1
    x[56]     c5        1
    x[56]     c50       1
    x[56]     c51       1
    x[56]     c54       1
    x[56]     c55       1
    x[56]     c56       1
    x[56]     c72       1
    x[56]     c77       1
    x[56]     c91       1
    x[56]     c94       1
    x[56]     OBJ       1
    x[57]     c6        1
    x[57]     c24       1
    x[57]     c52       1
    x[57]     c55       1
    x[57]     c57       1
    x[57]     c65       1
    x[57]     c87       1
    x[57]     c92       1
    x[57]     OBJ       1
    x[58]     c26       1
    x[58]     c36       1
    x[58]     c41       1
    x[58]     c58       1
    x[58]     c59       1
    x[58]     c63       1
    x[58]     c82       1
    x[58]     OBJ       1
    x[59]     c1        1
    x[59]     c15       1
    x[59]     c16       1
    x[59]     c22       1
    x[59]     c25       1
    x[59]     c43       1
    x[59]     c46       1
    x[59]     c52       1
    x[59]     c58       1
    x[59]     c59       1
    x[59]     c61       1
    x[59]     c66       1
    x[59]     c72       1
    x[59]     c84       1
    x[59]     c90       1
    x[59]     c93       1
    x[59]     OBJ       1
    x[60]     c11       1
    x[60]     c24       1
    x[60]     c29       1
    x[60]     c32       1
    x[60]     c43       1
    x[60]     c54       1
    x[60]     c60       1
    x[60]     c70       1
    x[60]     c71       1
    x[60]     c76       1
    x[60]     OBJ       1
    x[61]     c1        1
    x[61]     c2        1
    x[61]     c11       1
    x[61]     c17       1
    x[61]     c27       1
    x[61]     c30       1
    x[61]     c46       1
    x[61]     c59       1
    x[61]     c61       1
    x[61]     c73       1
    x[61]     c90       1
    x[61]     c96       1
    x[61]     OBJ       1
    x[62]     c2        1
    x[62]     c3        1
    x[62]     c4        1
    x[62]     c18       1
    x[62]     c39       1
    x[62]     c55       1
    x[62]     c62       1
    x[62]     c85       1
    x[62]     OBJ       1
    x[63]     c2        1
    x[63]     c18       1
    x[63]     c36       1
    x[63]     c38       1
    x[63]     c46       1
    x[63]     c53       1
    x[63]     c58       1
    x[63]     c63       1
    x[63]     c66       1
    x[63]     c100      1
    x[63]     OBJ       1
    x[64]     c3        1
    x[64]     c5        1
    x[64]     c20       1
    x[64]     c21       1
    x[64]     c54       1
    x[64]     c64       1
    x[64]     c68       1
    x[64]     c83       1
    x[64]     c88       1
    x[64]     c91       1
    x[64]     c92       1
    x[64]     OBJ       1
    x[65]     c2        1
    x[65]     c16       1
    x[65]     c33       1
    x[65]     c36       1
    x[65]     c54       1
    x[65]     c57       1
    x[65]     c65       1
    x[65]     c85       1
    x[65]     c99       1
    x[65]     OBJ       1
    x[66]     c5        1
    x[66]     c28       1
    x[66]     c30       1
    x[66]     c31       1
    x[66]     c51       1
    x[66]     c59       1
    x[66]     c63       1
    x[66]     c66       1
    x[66]     c69       1
    x[66]     c79       1
    x[66]     c91       1
    x[66]     c95       1
    x[66]     c98       1
    x[66]     c100      1
    x[66]     OBJ       1
    x[67]     c13       1
    x[67]     c16       1
    x[67]     c25       1
    x[67]     c36       1
    x[67]     c45       1
    x[67]     c50       1
    x[67]     c52       1
    x[67]     c67       1
    x[67]     c74       1
    x[67]     c97       1
    x[67]     c98       1
    x[67]     c100      1
    x[67]     OBJ       1
    x[68]     c2        1
    x[68]     c37       1
    x[68]     c54       1
    x[68]     c64       1
    x[68]     c68       1
    x[68]     c71       1
    x[68]     c73       1
    x[68]     c80       1
    x[68]     c91       1
    x[68]     c92       1
    x[68]     OBJ       1
    x[69]     c3        1
    x[69]     c8        1
    x[69]     c14       1
    x[69]     c16       1
    x[69]     c18       1
    x[69]     c23       1
    x[69]     c55       1
    x[69]     c66       1
    x[69]     c69       1
    x[69]     OBJ       1
    x[70]     c8        1
    x[70]     c13       1
    x[70]     c16       1
    x[70]     c18       1
    x[70]     c45       1
    x[70]     c60       1
    x[70]     c70       1
    x[70]     c72       1
    x[70]     c79       1
    x[70]     c84       1
    x[70]     OBJ       1
    x[71]     c3        1
    x[71]     c23       1
    x[71]     c41       1
    x[71]     c49       1
    x[71]     c60       1
    x[71]     c68       1
    x[71]     c71       1
    x[71]     c72       1
    x[71]     c81       1
    x[71]     c90       1
    x[71]     OBJ       1
    x[72]     c16       1
    x[72]     c35       1
    x[72]     c42       1
    x[72]     c44       1
    x[72]     c48       1
    x[72]     c56       1
    x[72]     c59       1
    x[72]     c70       1
    x[72]     c71       1
    x[72]     c72       1
    x[72]     c92       1
    x[72]     c97       1
    x[72]     OBJ       1
    x[73]     c2        1
    x[73]     c9        1
    x[73]     c41       1
    x[73]     c42       1
    x[73]     c53       1
    x[73]     c61       1
    x[73]     c68       1
    x[73]     c73       1
    x[73]     c77       1
    x[73]     OBJ       1
    x[74]     c10       1
    x[74]     c13       1
    x[74]     c23       1
    x[74]     c25       1
    x[74]     c36       1
    x[74]     c38       1
    x[74]     c39       1
    x[74]     c41       1
    x[74]     c67       1
    x[74]     c74       1
    x[74]     c93       1
    x[74]     c94       1
    x[74]     OBJ       1
    x[75]     c10       1
    x[75]     c21       1
    x[75]     c26       1
    x[75]     c28       1
    x[75]     c75       1
    x[75]     c85       1
    x[75]     c91       1
    x[75]     OBJ       1
    x[76]     c3        1
    x[76]     c13       1
    x[76]     c30       1
    x[76]     c35       1
    x[76]     c60       1
    x[76]     c76       1
    x[76]     c82       1
    x[76]     OBJ       1
    x[77]     c14       1
    x[77]     c56       1
    x[77]     c73       1
    x[77]     c77       1
    x[77]     c90       1
    x[77]     OBJ       1
    x[78]     c23       1
    x[78]     c25       1
    x[78]     c29       1
    x[78]     c37       1
    x[78]     c39       1
    x[78]     c40       1
    x[78]     c51       1
    x[78]     c78       1
    x[78]     c84       1
    x[78]     c87       1
    x[78]     c96       1
    x[78]     c97       1
    x[78]     OBJ       1
    x[79]     c1        1
    x[79]     c12       1
    x[79]     c19       1
    x[79]     c28       1
    x[79]     c52       1
    x[79]     c66       1
    x[79]     c70       1
    x[79]     c79       1
    x[79]     c85       1
    x[79]     c87       1
    x[79]     c90       1
    x[79]     c92       1
    x[79]     c97       1
    x[79]     OBJ       1
    x[80]     c13       1
    x[80]     c15       1
    x[80]     c21       1
    x[80]     c22       1
    x[80]     c27       1
    x[80]     c44       1
    x[80]     c68       1
    x[80]     c80       1
    x[80]     c85       1
    x[80]     c86       1
    x[80]     c98       1
    x[80]     OBJ       1
    x[81]     c3        1
    x[81]     c9        1
    x[81]     c20       1
    x[81]     c38       1
    x[81]     c42       1
    x[81]     c52       1
    x[81]     c54       1
    x[81]     c71       1
    x[81]     c81       1
    x[81]     c87       1
    x[81]     OBJ       1
    x[82]     c10       1
    x[82]     c11       1
    x[82]     c16       1
    x[82]     c39       1
    x[82]     c45       1
    x[82]     c58       1
    x[82]     c76       1
    x[82]     c82       1
    x[82]     c98       1
    x[82]     c100      1
    x[82]     OBJ       1
    x[83]     c9        1
    x[83]     c23       1
    x[83]     c31       1
    x[83]     c34       1
    x[83]     c39       1
    x[83]     c64       1
    x[83]     c83       1
    x[83]     c90       1
    x[83]     OBJ       1
    x[84]     c4        1
    x[84]     c5        1
    x[84]     c12       1
    x[84]     c13       1
    x[84]     c15       1
    x[84]     c19       1
    x[84]     c20       1
    x[84]     c40       1
    x[84]     c59       1
    x[84]     c70       1
    x[84]     c78       1
    x[84]     c84       1
    x[84]     c86       1
    x[84]     c90       1
    x[84]     c92       1
    x[84]     c93       1
    x[84]     OBJ       1
    x[85]     c1        1
    x[85]     c8        1
    x[85]     c16       1
    x[85]     c31       1
    x[85]     c35       1
    x[85]     c41       1
    x[85]     c54       1
    x[85]     c62       1
    x[85]     c65       1
    x[85]     c75       1
    x[85]     c79       1
    x[85]     c80       1
    x[85]     c85       1
    x[85]     c89       1
    x[85]     c92       1
    x[85]     c93       1
    x[85]     OBJ       1
    x[86]     c10       1
    x[86]     c15       1
    x[86]     c22       1
    x[86]     c27       1
    x[86]     c80       1
    x[86]     c84       1
    x[86]     c86       1
    x[86]     c88       1
    x[86]     c99       1
    x[86]     OBJ       1
    x[87]     c2        1
    x[87]     c23       1
    x[87]     c41       1
    x[87]     c57       1
    x[87]     c78       1
    x[87]     c79       1
    x[87]     c81       1
    x[87]     c87       1
    x[87]     c94       1
    x[87]     OBJ       1
    x[88]     c5        1
    x[88]     c12       1
    x[88]     c15       1
    x[88]     c24       1
    x[88]     c25       1
    x[88]     c42       1
    x[88]     c49       1
    x[88]     c52       1
    x[88]     c64       1
    x[88]     c86       1
    x[88]     c88       1
    x[88]     c92       1
    x[88]     c94       1
    x[88]     OBJ       1
    x[89]     c14       1
    x[89]     c85       1
    x[89]     c89       1
    x[89]     OBJ       1
    x[90]     c1        1
    x[90]     c3        1
    x[90]     c8        1
    x[90]     c24       1
    x[90]     c26       1
    x[90]     c35       1
    x[90]     c39       1
    x[90]     c42       1
    x[90]     c50       1
    x[90]     c54       1
    x[90]     c59       1
    x[90]     c61       1
    x[90]     c71       1
    x[90]     c77       1
    x[90]     c79       1
    x[90]     c83       1
    x[90]     c84       1
    x[90]     c90       1
    x[90]     OBJ       1
    x[91]     c1        1
    x[91]     c36       1
    x[91]     c37       1
    x[91]     c56       1
    x[91]     c64       1
    x[91]     c66       1
    x[91]     c68       1
    x[91]     c75       1
    x[91]     c91       1
    x[91]     c94       1
    x[91]     OBJ       1
    x[92]     c4        1
    x[92]     c13       1
    x[92]     c22       1
    x[92]     c26       1
    x[92]     c28       1
    x[92]     c32       1
    x[92]     c41       1
    x[92]     c45       1
    x[92]     c47       1
    x[92]     c54       1
    x[92]     c57       1
    x[92]     c64       1
    x[92]     c68       1
    x[92]     c72       1
    x[92]     c79       1
    x[92]     c84       1
    x[92]     c85       1
    x[92]     c88       1
    x[92]     c92       1
    x[92]     c94       1
    x[92]     c96       1
    x[92]     OBJ       1
    x[93]     c53       1
    x[93]     c55       1
    x[93]     c59       1
    x[93]     c74       1
    x[93]     c84       1
    x[93]     c85       1
    x[93]     c93       1
    x[93]     c95       1
    x[93]     c97       1
    x[93]     c98       1
    x[93]     OBJ       1
    x[94]     c12       1
    x[94]     c18       1
    x[94]     c23       1
    x[94]     c49       1
    x[94]     c50       1
    x[94]     c56       1
    x[94]     c74       1
    x[94]     c87       1
    x[94]     c88       1
    x[94]     c91       1
    x[94]     c92       1
    x[94]     c94       1
    x[94]     c100      1
    x[94]     OBJ       1
    x[95]     c22       1
    x[95]     c26       1
    x[95]     c30       1
    x[95]     c36       1
    x[95]     c41       1
    x[95]     c54       1
    x[95]     c55       1
    x[95]     c66       1
    x[95]     c93       1
    x[95]     c95       1
    x[95]     c96       1
    x[95]     OBJ       1
    x[96]     c18       1
    x[96]     c21       1
    x[96]     c27       1
    x[96]     c35       1
    x[96]     c39       1
    x[96]     c53       1
    x[96]     c61       1
    x[96]     c78       1
    x[96]     c92       1
    x[96]     c95       1
    x[96]     c96       1
    x[96]     OBJ       1
    x[97]     c14       1
    x[97]     c25       1
    x[97]     c49       1
    x[97]     c67       1
    x[97]     c72       1
    x[97]     c78       1
    x[97]     c79       1
    x[97]     c93       1
    x[97]     c97       1
    x[97]     OBJ       1
    x[98]     c1        1
    x[98]     c13       1
    x[98]     c16       1
    x[98]     c22       1
    x[98]     c30       1
    x[98]     c33       1
    x[98]     c50       1
    x[98]     c66       1
    x[98]     c67       1
    x[98]     c80       1
    x[98]     c82       1
    x[98]     c93       1
    x[98]     c98       1
    x[98]     OBJ       1
    x[99]     c20       1
    x[99]     c21       1
    x[99]     c37       1
    x[99]     c45       1
    x[99]     c65       1
    x[99]     c86       1
    x[99]     c99       1
    x[99]     OBJ       1
    x[100]    c4        1
    x[100]    c6        1
    x[100]    c25       1
    x[100]    c28       1
    x[100]    c39       1
    x[100]    c42       1
    x[100]    c63       1
    x[100]    c66       1
    x[100]    c67       1
    x[100]    c82       1
    x[100]    c94       1
    x[100]    c100      1
    x[100]    OBJ       1
    MARKER    'MARKER'                 'INTEND'
RHS
    rhs       c1        1
    rhs       c2        1
    rhs       c3        1
    rhs       c4        1
    rhs       c5        1
    rhs       c6        1
    rhs       c7        1
    rhs       c8        1
    rhs       c9        1
    rhs       c10       1
    rhs       c11       1
    rhs       c12       1
    rhs       c13       1
    rhs       c14       1
    rhs       c15       1
    rhs       c16       1
    rhs       c17       1
    rhs       c18       1
    rhs       c19       1
    rhs       c20       1
    rhs       c21       1
    rhs       c22       1
    rhs       c23       1
    rhs       c24       1
    rhs       c25       1
    rhs       c26       1
    rhs       c27       1
    rhs       c28       1
    rhs       c29       1
    rhs       c30       1
    rhs       c31       1
    rhs       c32       1
    rhs       c33       1
    rhs       c34       1
    rhs       c35       1
    rhs       c36       1
    rhs       c37       1
    rhs       c38       1
    rhs       c39       1
    rhs       c40       1
    rhs       c41       1
    rhs       c42       1
    rhs       c43       1
    rhs       c44       1
    rhs       c45       1
    rhs       c46       1
    rhs       c47       1
    rhs       c48       1
    rhs       c49       1
    rhs       c50       1
    rhs       c51       1
    rhs       c52       1
    rhs       c53       1
    rhs       c54       1
    rhs       c55       1
    rhs       c56       1
    rhs       c57       1
    rhs       c58       1
    rhs       c59       1
    rhs       c60       1
    rhs       c61       1
    rhs       c62       1
    rhs       c63       1
    rhs       c64       1
    rhs       c65       1
    rhs       c66       1
    rhs       c67       1
    rhs       c68       1
    rhs       c69       1
    rhs       c70       1
    rhs       c71       1
    rhs       c72       1
    rhs       c73       1
    rhs       c74       1
    rhs       c75       1
    rhs       c76       1
    rhs       c77       1
    rhs       c78       1
    rhs       c79       1
    rhs       c80       1
    rhs       c81       1
    rhs       c82       1
    rhs       c83       1
    rhs       c84       1
    rhs       c85       1
    rhs       c86       1
    rhs       c87       1
    rhs       c88       1
    rhs       c89       1
    rhs       c90       1
    rhs       c91       1
    rhs       c92       1
    rhs       c93       1
    rhs       c94       1
    rhs       c95       1
    rhs       c96       1
    rhs       c97       1
    rhs       c98       1
    rhs       c99       1
    rhs       c100      1
RANGES
BOUNDS
 BV bounds    x[1]
 BV bounds    x[2]
 BV bounds    x[3]
 BV bounds    x[4]
 BV bounds    x[5]
 BV bounds    x[6]
 BV bounds    x[7]
 BV bounds    x[8]
 BV bounds    x[9]
 BV bounds    x[10]
 BV bounds    x[11]
 BV bounds    x[12]
 BV bounds    x[13]
 BV bounds    x[14]
 BV bounds    x[15]
 BV bounds    x[16]
 BV bounds    x[17]
 BV bounds    x[18]
 BV bounds    x[19]
 BV bounds    x[20]
 BV bounds    x[21]
 BV bounds    x[22]
 BV bounds    x[23]
 BV bounds    x[24]
 BV bounds    x[25]
 BV bounds    x[26]
 BV bounds    x[27]
 BV bounds    x[28]
 BV bounds    x[29]
 BV bounds    x[30]
 BV bounds    x[31]
 BV bounds    x[32]
 BV bounds    x[33]
 BV bounds    x[34]
 BV bounds    x[35]
 BV bounds    x[36]
 BV bounds    x[37]
 BV bounds    x[38]
 BV bounds    x[39]
 BV bounds    x[40]
 BV bounds    x[41]
 BV bounds    x[42]
 BV bounds    x[43]
 BV bounds    x[44]
 BV bounds    x[45]
 BV bounds    x[46]
 BV bounds    x[47]
 BV bounds    x[48]
 BV bounds    x[49]
 BV bounds    x[50]
 BV bounds    x[51]
 BV bounds    x[52]
 BV bounds    x[53]
 BV bounds    x[54]
 BV bounds    x[55]
 BV bounds    x[56]
 BV bounds    x[57]
 BV bounds    x[58]
 BV bounds    x[59]
 BV bounds    x[60]
 BV bounds    x[61]
 BV bounds    x[62]
 BV bounds    x[63]
 BV bounds    x[64]
 BV bounds    x[65]
 BV bounds    x[66]
 BV bounds    x[67]
 BV bounds    x[68]
 BV bounds    x[69]
 BV bounds    x[70]
 BV bounds    x[71]
 BV bounds    x[72]
 BV bounds    x[73]
 BV bounds    x[74]
 BV bounds    x[75]
 BV bounds    x[76]
 BV bounds    x[77]
 BV bounds    x[78]
 BV bounds    x[79]
 BV bounds    x[80]
 BV bounds    x[81]
 BV bounds    x[82]
 BV bounds    x[83]
 BV bounds    x[84]
 BV bounds    x[85]
 BV bounds    x[86]
 BV bounds    x[87]
 BV bounds    x[88]
 BV bounds    x[89]
 BV bounds    x[90]
 BV bounds    x[91]
 BV bounds    x[92]
 BV bounds    x[93]
 BV bounds    x[94]
 BV bounds    x[95]
 BV bounds    x[96]
 BV bounds    x[97]
 BV bounds    x[98]
 BV bounds    x[99]
 BV bounds    x[100]
ENDATA
